(set-info :smt-lib-version 2.6)
(set-logic QF_S)
(set-info :source |
Generated by: Hongjian Jiang, Oliver Markgraf, Daniel Stan, Anthony W. Lin, Philipp Ruemmer
Generated on: 2025-04-11
Application: Using String Solvers to solve RMC problems encoded as CHC over Strings
Target solver: cvc5, OSTRICH, Z3, Z3alpha, Z3-noodler
Time limit: 60.0
Benchmarks are extracted by running HornStr https://arg-git.informatik.uni-kl.de/pub/string-chc-lib on all benchmarks
provided in the repository and gathering the string queries sent to the string solvers.
|)
(set-info :license "https://creativecommons.org/licenses/by/4.0/")
(set-info :category "industrial")
(declare-fun Y () String)
(assert (let ((a!1 (re.union (re.union (re.union (str.to_re "7") (str.to_re "b"))
                               (str.to_re "4"))
                     (str.to_re "a"))))
(let ((a!2 (re.union (re.union (re.union a!1 (str.to_re "2")) (str.to_re "6"))
                     (str.to_re "9"))))
(let ((a!3 (re.union (re.union (re.union a!2 (str.to_re "1")) (str.to_re "3"))
                     (str.to_re "8"))))
(let ((a!4 (re.* (re.union (re.union a!3 (str.to_re "c")) (str.to_re "5")))))
  (str.in_re Y a!4))))))
(declare-fun X () String)
(declare-fun reg1 () String)
(declare-fun reg0 () String)
(assert (let ((a!1 (re.union (re.union (re.union (str.to_re "7") (str.to_re "8"))
                               (str.to_re "9"))
                     (str.to_re "a")))
      (a!4 (re.union (re.union (re.union (str.to_re "1") (str.to_re "2"))
                               (str.to_re "3"))
                     (str.to_re "4"))))
(let ((a!2 (re.union (re.union (re.union a!1 (str.to_re "b")) (str.to_re "1"))
                     (str.to_re "2")))
      (a!5 (str.in_re reg1 (re.* (re.union a!4 (str.to_re "5"))))))
(let ((a!3 (re.union (re.union (re.union a!2 (str.to_re "3")) (str.to_re "4"))
                     (str.to_re "5"))))
  (and true (= X reg1) (= Y reg1) (str.in_re reg0 (re.* a!3)) a!5)))))
(push 1)
(assert (= X "111"))
(set-info :status unknown)
(check-sat)
(assert (distinct Y "111"))
(set-info :status unknown)
(check-sat)
(pop 1)
(push 1)
(assert (= X "11"))
(set-info :status unknown)
(check-sat)
(assert (distinct Y "11"))
(set-info :status unknown)
(check-sat)
(pop 1)
(push 1)
(assert (= X "1111"))
(set-info :status unknown)
(check-sat)
(assert (distinct Y "1111"))
(set-info :status unknown)
(check-sat)
(pop 1)
(check-sat)
(exit)
